;; Mutation-Based Equivalence Benchmark
;; Source:     AutomatArk / instance15652.smt2
;; Mutations:  union_to_inter, range_shrink_hi
;; Status:     sat
;;
;; Original regex vs mutated regex
;; Equivalence check: unsat ⟺ L(R1) = L(R2)

(set-info :smt-lib-version 2.6)
(set-info :category "mutation")
(set-info :status sat)
(set-logic QF_S)


;; R1: original
;; R2: mutated (union_to_inter, range_shrink_hi)
(assert
  (not
    (=
      (re.union (re.++ (re.union (re.range "0" "9") (re.++ (re.range "0" "1") (re.range "0" "9")) (re.++ (str.to_re "2") (re.range "0" "3"))) (str.to_re ":") (re.opt (re.union (str.to_re " ") (str.to_re "\u{9}") (str.to_re "\u{a}") (str.to_re "\u{c}") (str.to_re "\u{d}"))) (re.union (str.to_re "AM") (str.to_re "PM") (str.to_re "am") (str.to_re "pm") (str.to_re "aM") (str.to_re "Am") (str.to_re "pM") (re.++ (str.to_re "P") ((_ re.loop 2 2) (str.to_re "m")))) (re.range "0" "5") (re.range "0" "9")) (re.++ (str.to_re "\u{a}") (re.union (re.range "0" "9") (re.++ (str.to_re "1") (re.range "0" "9")) (re.++ (str.to_re "2") (re.range "0" "3"))) (re.opt (re.union (str.to_re " ") (str.to_re "\u{9}") (str.to_re "\u{a}") (str.to_re "\u{c}") (str.to_re "\u{d}"))) (re.union (str.to_re "AM") (str.to_re "PM") (str.to_re "am") (str.to_re "pm") (str.to_re "aM") (str.to_re "Am") (str.to_re "pM") (re.++ (str.to_re "P") ((_ re.loop 2 2) (str.to_re "m"))))))
      (re.union (re.++ (re.union (re.range "0" "9") (re.++ (re.range "0" "1") (re.range "0" "9")) (re.++ (str.to_re "2") (re.range "0" "3"))) (str.to_re ":") (re.opt (re.union (str.to_re " ") (str.to_re "\u{9}") (str.to_re "\u{a}") (str.to_re "\u{c}") (str.to_re "\u{d}"))) (re.union (str.to_re "AM") (str.to_re "PM") (str.to_re "am") (str.to_re "pm") (str.to_re "aM") (str.to_re "Am") (str.to_re "pM") (re.++ (str.to_re "P") ((_ re.loop 2 2) (str.to_re "m")))) (re.range "0" "5") (re.range "0" "9")) (re.++ (str.to_re "\u{a}") (re.union (re.range "0" "9") (re.++ (str.to_re "1") (re.range "0" "8")) (re.++ (str.to_re "2") (re.range "0" "3"))) (re.opt (re.inter (str.to_re " ") (str.to_re "\u{9}") (str.to_re "\u{a}") (str.to_re "\u{c}") (str.to_re "\u{d}"))) (re.union (str.to_re "AM") (str.to_re "PM") (str.to_re "am") (str.to_re "pm") (str.to_re "aM") (str.to_re "Am") (str.to_re "pM") (re.++ (str.to_re "P") ((_ re.loop 2 2) (str.to_re "m")))))))))

(check-sat)
(exit)
